QPLIB_1353
QCQ
minimize
50 # number of variables
6 # number of constraints
1222 # number of quadratic terms in objective
1 1 0.3
2 1 -0.2
3 1 -0.28
4 1 -0.08
5 1 0.44
6 1 -0.44
7 1 0.12
8 1 0.32
9 1 -0.48
10 1 0.24
11 1 -0.24
12 1 0.24
13 1 -0.12
14 1 0.12
15 1 0.68
16 1 0.04
17 1 -0.24
18 1 0.12
19 1 0.04
20 1 -0.2
21 1 0.12
22 1 0.08
23 1 0.2
24 1 -0.36
25 1 -0.24
26 1 0.28
27 1 -0.12
28 1 -0.08
29 1 0.24
30 1 0.08
31 1 0.16
32 1 0.24
34 1 0.16
35 1 0.72
36 1 -0.4
37 1 0.08
38 1 -0.08
39 1 0.2
40 1 0.44
41 1 0.08
42 1 0.52
43 1 -0.04
44 1 0.76
45 1 -0.36
46 1 -0.28
47 1 0.04
48 1 -0.32
49 1 -0.08
50 1 -0.16
2 2 0.38
3 2 -0.04
4 2 0.52
5 2 0.64
7 2 0.04
8 2 -0.04
9 2 -0.08
10 2 -0.08
11 2 -0.44
12 2 0.16
13 2 -0.16
14 2 -0.68
15 2 -0.04
16 2 -0.24
17 2 -0.44
18 2 0.04
19 2 -0.08
20 2 0.36
21 2 0.04
22 2 -0.24
23 2 0.64
24 2 0.28
25 2 -0.24
26 2 -0.52
27 2 0.12
28 2 -0.08
29 2 0.36
30 2 -0.08
31 2 0.12
32 2 0.04
33 2 0.4
34 2 -0.04
35 2 0.2
36 2 -0.4
37 2 0.12
38 2 0.04
39 2 0.36
40 2 0.28
41 2 0.56
43 2 0.8
44 2 -0.4
45 2 0.44
46 2 0.08
47 2 -0.08
48 2 -0.2
49 2 -0.08
50 2 -0.36
3 3 0.48
4 3 -0.12
6 3 0.12
7 3 0.08
8 3 -0.24
9 3 0.04
10 3 0.04
11 3 0.12
12 3 -0.28
13 3 -0.28
14 3 0.32
15 3 0.12
16 3 -0.08
17 3 0.04
18 3 0.16
19 3 0.16
20 3 -0.16
21 3 0.2
22 3 0.12
23 3 0.4
24 3 0.08
25 3 0.12
26 3 -0.12
27 3 -0.12
28 3 -0.08
29 3 0.32
30 3 0.24
31 3 -0.08
32 3 0.28
33 3 0.44
34 3 0.16
35 3 -0.16
36 3 0.12
37 3 0.04
38 3 0.04
39 3 0.36
40 3 0.28
41 3 0.68
42 3 -0.12
43 3 -0.04
44 3 -0.2
45 3 0.16
46 3 0.2
47 3 -0.2
48 3 -0.2
49 3 0.44
50 3 -0.28
4 4 0.1
5 4 -0.48
6 4 -0.04
7 4 0.28
8 4 0.12
9 4 -0.08
11 4 0.12
12 4 -0.24
13 4 0.04
14 4 0.08
15 4 0.16
16 4 0.04
17 4 0.04
19 4 0.28
20 4 0.04
21 4 -0.08
22 4 0.6
23 4 -0.16
24 4 0.08
25 4 0.52
26 4 -0.12
27 4 0.12
28 4 0.44
29 4 0.12
30 4 0.12
31 4 -0.08
32 4 0.08
33 4 0.32
34 4 -0.24
35 4 -0.12
36 4 0.4
37 4 -0.2
38 4 0.2
39 4 0.16
40 4 0.12
41 4 -0.56
42 4 0.36
43 4 -0.4
44 4 -0.32
46 4 0.12
47 4 0.36
49 4 0.04
50 4 -0.08
5 5 0.18
6 5 0.36
7 5 0.44
8 5 0.16
9 5 0.36
10 5 -0.24
11 5 0.04
12 5 -0.48
13 5 -0.04
14 5 -0.08
15 5 0.2
16 5 0.08
17 5 -0.12
18 5 0.04
19 5 0.2
20 5 -0.4
21 5 0.2
22 5 0.4
23 5 0.24
24 5 -0.12
25 5 0.4
26 5 -0.2
27 5 0.08
28 5 0.12
29 5 0.04
30 5 0.04
31 5 0.24
32 5 -0.08
33 5 -0.16
34 5 -0.04
35 5 -0.24
36 5 0.12
37 5 0.24
38 5 0.36
39 5 0.2
40 5 -0.28
41 5 -0.2
42 5 -0.12
43 5 -1.12
44 5 0.72
45 5 0.12
46 5 -0.2
47 5 0.16
48 5 0.68
49 5 0.36
50 5 -0.2
6 6 0.74
7 6 0.8
8 6 0.32
9 6 0.08
10 6 -0.08
13 6 -0.24
14 6 -0.08
15 6 -0.16
16 6 0.32
18 6 0.04
19 6 -0.08
21 6 0.28
22 6 0.44
23 6 -0.2
24 6 -0.16
25 6 -0.56
26 6 -0.2
27 6 -0.32
28 6 -0.08
29 6 0.12
30 6 -0.28
31 6 0.16
32 6 0.16
33 6 0.16
34 6 0.48
35 6 -0.12
36 6 0.12
37 6 0.28
38 6 -0.24
39 6 0.04
40 6 0.64
41 6 -0.16
42 6 0.24
43 6 -0.36
44 6 0.16
46 6 -0.16
50 6 0.08
7 7 0.44
9 7 -0.28
10 7 0.24
11 7 -0.04
12 7 -0.12
13 7 0.2
14 7 0.16
15 7 0.12
16 7 0.28
17 7 0.04
18 7 -0.08
19 7 -0.56
20 7 -0.2
21 7 0.2
22 7 -0.12
23 7 0.24
24 7 -0.2
25 7 0.32
26 7 0.4
27 7 0.2
28 7 -0.32
29 7 -0.24
30 7 -0.24
31 7 -0.08
32 7 -0.8
33 7 -0.16
34 7 0.2
35 7 0.08
36 7 0.24
37 7 -0.04
38 7 0.24
39 7 -0.64
40 7 -0.08
41 7 -0.52
42 7 0.08
43 7 0.48
44 7 0.04
45 7 0.24
46 7 -0.28
47 7 -0.56
48 7 0.16
49 7 -0.28
50 7 0.44
8 8 -0.04
9 8 -0.04
10 8 0.32
11 8 -0.08
12 8 -0.32
13 8 0.6
14 8 0.2
15 8 0.08
16 8 0.16
17 8 -0.04
18 8 -0.2
19 8 0.04
20 8 0.16
21 8 0.36
22 8 -0.68
23 8 -0.04
24 8 0.08
25 8 0.04
26 8 0.08
27 8 0.24
28 8 0.52
29 8 -0.08
30 8 0.2
31 8 -0.36
32 8 0.12
33 8 0.56
34 8 -0.76
35 8 -0.28
36 8 0.4
37 8 -0.4
39 8 -0.32
40 8 0.2
41 8 -0.16
42 8 0.04
43 8 0.4
44 8 -0.2
45 8 -0.16
46 8 0.44
47 8 0.12
48 8 0.32
49 8 -0.12
50 8 -0.12
9 9 0.66
10 9 0.04
12 9 -0.2
13 9 0.16
14 9 -0.04
15 9 0.52
16 9 -0.08
17 9 -0.08
18 9 0.2
19 9 0.2
20 9 -0.12
21 9 0.28
22 9 -0.16
23 9 -0.04
24 9 0.08
25 9 0.28
26 9 0.08
27 9 0.12
28 9 -0.08
29 9 0.04
30 9 0.2
31 9 -0.16
32 9 0.48
33 9 0.6
34 9 -0.4
35 9 0.16
36 9 0.2
37 9 -0.08
38 9 -0.24
39 9 -0.12
40 9 0.08
42 9 0.08
43 9 -0.04
44 9 -0.24
45 9 -0.16
46 9 0.52
47 9 0.2
48 9 -0.52
49 9 0.36
50 9 -0.24
10 10 0.48
11 10 0.2
12 10 0.32
13 10 -0.48
15 10 -0.28
16 10 0.04
17 10 0.08
18 10 -0.28
19 10 0.4
20 10 -0.16
21 10 -0.16
22 10 0.72
23 10 0.16
24 10 0.12
25 10 0.12
26 10 -0.04
27 10 -0.04
28 10 0.28
29 10 -0.52
30 10 -0.08
31 10 -0.16
32 10 0.12
33 10 0.08
34 10 0.04
35 10 0.16
36 10 0.16
37 10 0.52
38 10 0.28
39 10 0.28
40 10 -0.04
41 10 0.36
42 10 0.08
43 10 -0.44
44 10 -0.04
45 10 0.2
46 10 -0.24
47 10 0.04
48 10 -0.12
49 10 -0.08
50 10 -0.44
11 11 0.54
12 11 -0.24
13 11 -0.16
14 11 0.12
15 11 0.4
16 11 0.28
18 11 0.08
19 11 0.12
20 11 -0.04
21 11 0.16
22 11 0.04
23 11 0.24
24 11 0.12
25 11 -0.6
26 11 0.36
27 11 -0.12
28 11 -0.44
29 11 0.12
30 11 0.6
31 11 0.2
32 11 -0.2
33 11 -0.28
34 11 -0.04
35 11 0.6
36 11 -0.36
37 11 0.16
38 11 -0.08
39 11 -0.12
40 11 -0.12
41 11 0.04
42 11 -0.24
43 11 -0.12
44 11 0.04
45 11 -0.32
46 11 0.08
47 11 0.08
48 11 0.04
49 11 -0.12
50 11 0.56
12 12 0.52
13 12 0.48
14 12 0.76
15 12 0.36
16 12 -0.04
17 12 0.32
18 12 0.08
19 12 -0.2
20 12 -0.28
21 12 0.6
22 12 0.16
23 12 0.4
24 12 -0.16
25 12 0.28
26 12 -0.12
27 12 0.4
28 12 0.36
29 12 0.28
30 12 0.28
31 12 0.28
32 12 0.12
33 12 0.64
34 12 -0.36
35 12 -0.48
36 12 0.68
37 12 -0.2
40 12 0.24
41 12 -0.48
42 12 -0.08
43 12 -0.44
44 12 -0.28
45 12 -0.32
46 12 0.04
47 12 0.04
48 12 0.2
49 12 -0.24
50 12 -0.44
13 13 0.76
14 13 -0.08
15 13 -0.12
16 13 -0.28
17 13 -0.68
18 13 0.16
19 13 0.28
20 13 0.28
21 13 -0.16
22 13 0.2
23 13 0.24
24 13 -0.08
25 13 -0.64
26 13 0.16
27 13 -0.48
28 13 0.28
29 13 0.16
30 13 0.28
31 13 0.12
32 13 -0.16
33 13 -0.52
34 13 0.6
35 13 0.52
36 13 0.08
38 13 0.08
39 13 0.44
40 13 -0.24
41 13 0.28
42 13 0.12
43 13 -0.04
44 13 -0.56
45 13 -0.56
46 13 -0.12
47 13 0.48
48 13 -0.28
49 13 0.36
50 13 0.08
14 14 0.72
15 14 -0.12
16 14 -0.2
17 14 -0.12
18 14 0.48
19 14 0.12
20 14 0.28
22 14 -0.24
23 14 -0.04
24 14 -0.12
25 14 0.16
26 14 0.08
27 14 -0.12
28 14 0.12
29 14 0.16
30 14 0.12
31 14 0.16
32 14 -0.44
33 14 -0.76
34 14 0.28
35 14 0.28
36 14 -0.12
37 14 -0.28
38 14 0.28
39 14 -0.2
40 14 -0.6
41 14 -0.2
42 14 -0.36
43 14 -0.16
44 14 0.04
45 14 0.2
46 14 -0.36
47 14 0.32
48 14 -0.52
49 14 0.12
50 14 0.52
16 15 0.24
17 15 -0.24
18 15 -0.28
19 15 -0.12
20 15 0.68
21 15 -0.36
22 15 -0.28
23 15 0.56
24 15 0.12
25 15 0.28
26 15 0.08
27 15 0.08
28 15 0.52
29 15 -0.08
30 15 -0.32
31 15 0.12
32 15 -0.12
33 15 0.52
34 15 0.12
35 15 -0.36
36 15 -0.32
37 15 -0.24
38 15 -0.28
39 15 0.28
40 15 0.28
41 15 0.28
42 15 -0.52
43 15 -0.12
44 15 0.08
45 15 0.76
46 15 -0.4
47 15 -0.12
48 15 0.56
49 15 -0.48
50 15 0.12
16 16 0.72
17 16 -0.24
18 16 -0.28
19 16 0.04
20 16 0.12
21 16 0.04
22 16 0.4
23 16 -0.12
24 16 0.04
25 16 0.24
26 16 0.16
27 16 0.04
28 16 -0.28
29 16 -0.2
30 16 0.16
31 16 0.36
32 16 -0.12
33 16 -0.24
34 16 0.68
35 16 -0.28
36 16 0.08
37 16 -0.44
38 16 -0.12
39 16 0.16
41 16 0.36
42 16 0.16
43 16 -0.16
44 16 -0.2
45 16 -0.08
47 16 -0.04
48 16 0.32
49 16 0.16
50 16 -0.28
17 17 0.46
18 17 -0.04
19 17 0.68
20 17 0.36
21 17 -0.12
23 17 0.36
24 17 -0.04
25 17 -0.4
26 17 -0.2
27 17 -0.08
28 17 -0.12
29 17 0.36
30 17 0.12
31 17 0.16
32 17 0.16
33 17 0.16
34 17 -0.32
35 17 0.24
36 17 0.24
37 17 0.44
38 17 -0.12
39 17 0.4
40 17 0.04
41 17 0.28
42 17 0.08
43 17 0.4
44 17 -0.2
45 17 -0.08
46 17 0.56
47 17 0.08
48 17 -0.12
50 17 0.36
18 18 0.86
19 18 -0.24
20 18 -0.32
21 18 0.28
23 18 -0.16
24 18 0.12
25 18 0.08
26 18 -0.4
27 18 0.04
28 18 0.04
29 18 0.04
31 18 -0.2
32 18 0.24
33 18 -0.56
34 18 0.4
35 18 -0.4
36 18 0.28
37 18 0.08
38 18 -0.12
39 18 0.04
40 18 -0.32
41 18 0.08
42 18 0.4
43 18 0.2
44 18 0.44
46 18 0.08
47 18 0.2
48 18 0.56
49 18 -0.04
50 18 -0.28
19 19 0.6
20 19 -0.04
21 19 0.28
22 19 0.44
23 19 -0.2
24 19 0.16
25 19 0.2
26 19 -0.12
27 19 0.04
28 19 -0.08
29 19 0.08
30 19 -0.12
31 19 -0.36
32 19 -0.08
33 19 0.16
34 19 0.32
35 19 0.04
36 19 -0.2
37 19 0.08
38 19 -0.36
40 19 0.2
41 19 0.04
42 19 0.2
43 19 0.16
44 19 0.16
45 19 -0.04
46 19 0.12
47 19 -0.4
48 19 -0.4
49 19 0.24
50 19 -0.16
20 20 0.5
21 20 0.28
23 20 -0.4
24 20 0.08
25 20 0.04
26 20 0.56
28 20 -0.48
29 20 0.08
30 20 0.4
31 20 0.16
32 20 0.04
33 20 -0.24
34 20 -0.12
35 20 -0.16
36 20 0.16
37 20 0.6
38 20 0.28
39 20 -0.32
40 20 -0.2
41 20 -0.24
42 20 0.28
43 20 -0.4
44 20 0.56
45 20 0.08
46 20 0.08
47 20 0.04
48 20 0.16
21 21 0.64
22 21 0.44
23 21 0.16
24 21 -0.12
25 21 0.12
26 21 -0.12
27 21 -0.04
28 21 0.08
29 21 0.2
30 21 -0.24
31 21 -0.24
33 21 -0.36
34 21 0.08
35 21 -0.28
36 21 0.12
37 21 -0.32
38 21 0.08
39 21 0.52
40 21 -0.4
41 21 -0.04
42 21 -0.32
43 21 -0.04
44 21 -0.64
45 21 0.6
46 21 -0.16
47 21 -0.16
48 21 -0.08
49 21 0.04
50 21 -0.04
22 22 0.14
23 22 -0.12
24 22 -0.08
25 22 -0.48
27 22 0.16
28 22 0.16
29 22 0.6
30 22 0.56
31 22 -0.4
32 22 -0.24
33 22 -0.32
34 22 -0.12
35 22 0.08
36 22 -0.6
37 22 -0.32
38 22 0.08
39 22 -0.6
40 22 -0.28
41 22 -0.28
42 22 -0.08
43 22 0.68
44 22 -0.12
45 22 -0.4
46 22 0.28
47 22 0.16
48 22 -0.16
49 22 -0.28
50 22 0.76
23 23 0.5
24 23 0.64
25 23 -0.08
26 23 0.36
27 23 -0.16
28 23 0.12
29 23 -0.2
30 23 -0.04
31 23 -0.28
32 23 -0.16
33 23 -0.2
34 23 0.16
35 23 0.24
36 23 -0.12
38 23 -0.16
39 23 -0.64
40 23 0.28
41 23 -0.04
42 23 0.08
43 23 -0.4
44 23 0.12
45 23 -0.28
46 23 -0.48
47 23 0.64
48 23 0.36
49 23 -0.32
50 23 -0.16
24 24 0.6
25 24 0.52
26 24 -0.36
27 24 0.32
28 24 0.16
29 24 -0.16
30 24 -0.24
31 24 0.4
32 24 -0.6
33 24 0.04
35 24 -0.16
36 24 -0.04
37 24 -0.24
38 24 0.24
39 24 -0.04
40 24 -0.24
42 24 0.08
43 24 0.12
44 24 -0.32
45 24 0.24
46 24 0.36
47 24 0.4
48 24 -0.44
49 24 0.08
50 24 0.24
25 25 0.52
26 25 0.04
27 25 -0.16
28 25 -0.2
29 25 0.16
30 25 0.16
31 25 0.24
32 25 -0.04
33 25 0.08
34 25 0.24
35 25 0.48
36 25 -0.68
37 25 -0.08
38 25 -0.12
39 25 -0.24
40 25 0.2
41 25 -0.2
42 25 0.12
43 25 0.04
44 25 0.12
45 25 -0.28
46 25 0.36
47 25 -0.28
48 25 -0.2
49 25 0.08
50 25 0.44
26 26 0.48
27 26 0.2
28 26 0.08
29 26 0.12
30 26 0.12
31 26 0.4
32 26 -0.32
33 26 0.16
34 26 0.32
35 26 0.04
36 26 -0.12
37 26 -0.36
39 26 0.16
40 26 -0.04
41 26 0.24
42 26 -0.12
43 26 0.2
44 26 -0.04
45 26 0.08
46 26 0.28
47 26 -0.4
48 26 0.4
49 26 -0.32
50 26 0.6
27 27 0.34
28 27 -0.24
29 27 -0.28
30 27 0.08
31 27 -0.04
32 27 0.04
33 27 -0.48
34 27 0.12
35 27 0.44
36 27 0.4
37 27 0.28
38 27 -0.16
39 27 0.16
40 27 -0.12
41 27 -0.12
42 27 -0.12
43 27 -0.08
44 27 0.56
45 27 -0.16
46 27 -0.04
47 27 0.08
48 27 0.08
49 27 0.08
50 27 -0.04
28 28 0.7
29 28 -0.16
30 28 -0.28
31 28 -0.24
33 28 -0.56
34 28 0.28
35 28 0.76
36 28 -0.08
37 28 0.04
38 28 0.24
39 28 -0.36
40 28 0.36
41 28 -0.36
42 28 0.4
43 28 0.16
44 28 -0.2
45 28 0.2
46 28 0.24
47 28 -0.24
48 28 0.08
49 28 -0.04
50 28 -0.16
29 29 0.6
30 29 0.32
31 29 0.08
32 29 0.12
33 29 -0.24
34 29 -0.52
35 29 0.08
36 29 0.08
37 29 -0.28
38 29 0.24
39 29 -0.52
40 29 0.08
41 29 -0.2
42 29 -0.16
43 29 -0.12
44 29 -0.16
45 29 0.12
46 29 -0.16
47 29 -0.2
49 29 -0.2
50 29 0.28
30 30 0.46
31 30 0.08
32 30 -0.28
33 30 0.04
34 30 0.28
35 30 0.08
36 30 0.04
37 30 0.24
38 30 -0.2
39 30 0.08
40 30 -0.24
41 30 -0.12
42 30 0.28
43 30 0.12
44 30 -0.16
45 30 0.16
46 30 -0.16
47 30 -0.12
48 30 -0.04
49 30 0.04
50 30 -0.48
31 31 0.44
32 31 -0.12
33 31 0.04
34 31 -0.6
35 31 0.32
36 31 -0.32
37 31 -0.12
38 31 0.16
39 31 0.16
40 31 0.28
41 31 -0.12
42 31 -0.04
43 31 0.16
44 31 0.24
45 31 0.16
46 31 -0.2
47 31 0.56
49 31 0.16
50 31 -0.04
32 32 0.44
33 32 -0.04
34 32 0.4
35 32 -0.4
36 32 0.2
37 32 0.16
38 32 0.48
39 32 -0.04
40 32 -0.16
41 32 -0.12
42 32 -0.2
43 32 0.12
44 32 0.36
45 32 0.24
46 32 -0.16
47 32 -0.16
48 32 0.08
49 32 0.16
50 32 0.44
33 33 0.2
34 33 0.8
35 33 0.04
36 33 -0.16
37 33 -0.36
38 33 0.4
39 33 -0.2
40 33 -0.4
41 33 -0.08
42 33 0.52
43 33 -0.4
44 33 0.24
45 33 -0.12
46 33 -0.48
47 33 -0.2
48 33 0.32
49 33 0.44
50 33 0.76
34 34 0.64
35 34 -0.56
36 34 0.32
37 34 -0.04
38 34 -0.44
39 34 0.04
40 34 0.28
41 34 -0.28
42 34 -0.24
43 34 0.16
44 34 -0.12
45 34 -0.36
46 34 -0.16
47 34 0.16
48 34 -0.32
49 34 0.36
50 34 0.04
35 35 0.3
36 35 0.16
38 35 0.12
39 35 -0.08
40 35 -0.08
41 35 0.12
42 35 -0.2
43 35 0.32
44 35 -0.32
45 35 -0.08
46 35 0.16
47 35 -0.2
48 35 0.04
49 35 0.24
50 35 0.12
36 36 0.56
37 36 -0.08
38 36 0.08
39 36 -0.4
40 36 0.12
41 36 -0.16
42 36 0.28
43 36 0.12
44 36 0.36
45 36 0.04
46 36 -0.16
47 36 -0.08
48 36 0.36
49 36 0.24
50 36 -0.04
37 37 0.52
38 37 0.32
39 37 -0.08
40 37 -0.2
41 37 0.12
42 37 -0.28
43 37 0.44
44 37 0.28
45 37 0.04
46 37 0.12
47 37 -0.08
48 37 0.2
49 37 0.4
50 37 0.04
38 38 0.6
39 38 0.28
40 38 0.08
41 38 0.2
42 38 0.36
43 38 0.16
44 38 0.04
46 38 -0.08
48 38 -0.44
49 38 -0.16
39 39 0.46
40 39 0.24
41 39 -0.48
42 39 0.4
43 39 0.56
44 39 0.24
45 39 -0.04
46 39 -0.28
47 39 -0.12
48 39 0.48
49 39 -0.12
50 39 0.2
40 40 0.42
41 40 0.16
42 40 -0.4
43 40 0.04
44 40 0.16
46 40 -0.4
47 40 0.4
48 40 0.16
49 40 -0.04
50 40 0.28
41 41 0.06
42 41 0.16
43 41 0.12
44 41 0.72
45 41 0.28
46 41 0.24
47 41 0.28
48 41 0.16
49 41 -0.36
50 41 0.32
42 42 0.3
43 42 -0.12
44 42 0.08
45 42 0.08
46 42 -0.04
47 42 0.36
48 42 -0.04
49 42 -0.28
50 42 0.28
43 43 0.74
44 43 0.08
45 43 -0.08
46 43 -0.12
47 43 0.44
48 43 0.4
49 43 0.24
50 43 -0.24
44 44 0.24
45 44 0.2
46 44 0.6
47 44 -0.04
48 44 -0.12
49 44 -0.2
50 44 0.04
45 45 0.62
46 45 0.2
47 45 0.2
48 45 -0.04
49 45 0.2
50 45 -0.12
46 46 0.7
47 46 0.12
48 46 0.32
49 46 -0.08
50 46 0.04
47 47 0.42
48 47 0.04
49 47 -0.52
50 47 -0.44
48 48 0.42
49 48 -0.24
50 48 -0.24
49 49 0.8
50 49 0.28
50 50 0.7
-0.69 # default value for linear coefficients in objective
49 # number of non-default linear coefficients in objective
1 0.15
2 0.58
3 0.72
4 -0.51
5 0.83
6 0.32
7 0.66
8 -0.29
9 -0.19
10 0.83
11 0.7
12 -0.25
13 -0.35
14 -0.18
15 -0.33
16 0.7
17 -0.77
18 -0.54
19 0.45
20 -0.2
21 -0.68
22 -0.03
23 -0.29
24 -0.14
25 -0.13
26 -0.28
27 -0.87
28 -0.53
29 -0.11
30 -0.24
31 -0.14
32 0.16
33 0.03
34 0.75
35 -0.94
36 -0.89
37 -0.21
38 0.64
39 0.79
40 0.25
41 -0.99
42 -0.66
43 0.54
44 -0.29
45 -0.03
46 -0.61
47 0.41
48 0.2
49 -0.74
0.0 # objective constant
1211 # number of quadratic terms in all constraints
6 6 1 0.46
6 6 1 0.12
6 6 1 0.2
6 6 1 -0.12
6 6 1 -0.16
6 6 1 0.44
6 6 1 0.4
6 6 1 0.08
6 6 1 -0.28
6 6 1 -0.12
6 6 1 0.24
6 6 1 -0.04
6 6 1 0.12
6 6 1 0.32
6 6 1 0.44
6 6 1 0.16
6 6 1 0.24
6 6 1 -0.04
6 6 1 0.04
6 6 1 -0.04
6 6 1 -0.08
6 6 1 0.36
6 6 1 -0.28
6 6 1 -0.08
6 6 1 -0.16
6 6 1 -0.2
6 6 1 -0.08
6 6 1 -0.04
6 6 1 0.32
6 6 1 0.44
6 6 1 0.28
6 6 1 0.36
6 6 1 -0.32
6 6 1 -0.24
6 6 1 -0.08
6 6 1 0.2
6 6 1 0.2
6 6 1 -0.36
6 6 1 0.56
6 6 1 -0.12
6 6 1 0.36
6 6 1 -0.48
6 6 1 0.16
6 6 1 -0.24
6 6 1 0.08
6 6 1 0.08
6 6 1 0.16
6 6 1 0.44
6 6 1 -0.28
6 6 1 0.36
6 6 1 0.38
6 6 1 0.44
6 6 1 0.2
6 6 1 -0.24
6 6 1 0.2
6 6 1 0.08
6 6 1 -0.36
6 6 1 -0.12
6 6 1 -0.48
6 6 1 -0.2
6 6 1 -0.04
6 6 1 0.32
6 6 1 0.04
6 6 1 0.4
6 6 1 -0.32
6 6 1 0.52
6 6 1 -0.08
6 6 1 -0.08
6 6 1 0.04
6 6 1 -0.16
6 6 1 -0.16
6 6 1 -0.2
6 6 1 -0.12
6 6 1 0.56
6 6 1 -0.24
6 6 1 0.08
6 6 1 -0.52
6 6 1 0.04
6 6 1 -0.12
6 6 1 -0.12
6 6 1 0.36
6 6 1 0.16
6 6 1 -0.08
6 6 1 0.76
6 6 1 0.2
6 6 1 0.32
6 6 1 0.4
6 6 1 0.04
6 6 1 0.44
6 6 1 0.12
6 6 1 0.12
6 6 1 0.36
6 6 1 0.2
6 6 1 -0.52
6 6 1 -0.04
6 6 1 0.1
6 6 1 0.08
6 6 1 -0.24
6 6 1 0.12
6 6 1 -0.28
6 6 1 0.36
6 6 1 0.2
6 6 1 -0.52
6 6 1 0.48
6 6 1 0.44
6 6 1 0.24
6 6 1 -0.24
6 6 1 -0.08
6 6 1 0.2
6 6 1 -0.2
6 6 1 -0.76
6 6 1 0.4
6 6 1 -0.4
6 6 1 0.36
6 6 1 0.44
6 6 1 0.24
6 6 1 -0.16
6 6 1 0.04
6 6 1 -0.12
6 6 1 0.4
6 6 1 -0.24
6 6 1 0.28
6 6 1 0.44
6 6 1 -0.28
6 6 1 0.32
6 6 1 0.2
6 6 1 0.64
6 6 1 0.36
6 6 1 0.28
6 6 1 0.16
6 6 1 -0.04
6 6 1 -0.04
6 6 1 -0.36
6 6 1 -0.04
6 6 1 0.56
6 6 1 0.32
6 6 1 -0.08
6 6 1 -0.12
6 6 1 -0.32
6 6 1 -0.68
6 6 1 -0.28
6 6 1 -0.36
6 6 1 0.56
6 6 1 0.12
6 6 1 -0.16
6 6 1 0.36
6 6 1 0.04
6 6 1 -0.28
6 6 1 0.32
6 6 1 -0.2
6 6 1 -0.08
6 6 1 0.36
6 6 1 -0.2
6 6 1 0.2
6 6 1 -0.36
6 6 1 -0.12
6 6 1 0.2
6 6 1 0.04
6 6 1 0.12
6 6 1 0.04
6 6 1 0.12
6 6 1 0.2
6 6 1 0.04
6 6 1 -0.08
6 6 1 -0.24
6 6 1 -0.08
6 6 1 -0.32
6 6 1 -0.12
6 6 1 -0.12
6 6 1 -0.04
6 6 1 0.08
6 6 1 0.4
6 6 1 0.04
6 6 1 0.28
6 6 1 0.04
6 6 1 0.08
6 6 1 0.16
6 6 1 0.44
6 6 1 -0.04
6 6 1 -0.08
6 6 1 0.2
6 6 1 -0.24
6 6 1 -0.16
6 6 1 -0.2
6 6 1 0.2
6 6 1 0.28
6 6 1 0.2
6 6 1 0.56
6 6 1 0.16
6 6 1 -0.36
6 6 1 0.36
6 6 1 0.28
6 6 1 -0.08
6 6 1 0.24
6 6 1 0.12
6 6 1 0.24
6 6 1 -0.24
6 6 1 0.32
6 6 1 0.16
6 6 1 0.16
6 6 1 0.12
6 6 1 -0.36
6 6 1 0.16
6 6 1 0.16
6 6 1 -0.32
6 6 1 -0.64
6 6 1 0.32
6 6 1 0.12
6 6 1 0.52
6 6 1 -0.16
6 6 1 -0.2
6 6 1 0.2
6 6 1 0.2
6 6 1 -0.16
6 6 1 0.16
6 6 1 0.6
6 6 1 -0.08
6 6 1 -0.32
6 6 1 -0.36
6 6 1 0.04
6 6 1 0.08
6 6 1 0.32
6 6 1 -0.12
6 6 1 -0.12
6 6 1 0.48
6 6 1 0.24
6 6 1 -0.36
6 6 1 0.16
6 6 1 0.12
6 6 1 0.58
6 6 1 0.32
6 6 1 -0.04
6 6 1 0.2
6 6 1 -0.16
6 6 1 0.44
6 6 1 -0.12
6 6 1 -0.2
6 6 1 -0.04
6 6 1 -0.12
6 6 1 0.4
6 6 1 0.28
6 6 1 -0.04
6 6 1 -0.12
6 6 1 0.56
6 6 1 -0.28
6 6 1 0.28
6 6 1 0.36
6 6 1 0.08
6 6 1 0.28
6 6 1 -0.4
6 6 1 -0.28
6 6 1 -0.56
6 6 1 0.12
6 6 1 -0.28
6 6 1 -0.12
6 6 1 -0.32
6 6 1 0.24
6 6 1 -0.12
6 6 1 -0.24
6 6 1 0.16
6 6 1 0.52
6 6 1 0.72
6 6 1 0.12
6 6 1 0.2
6 6 1 -0.08
6 6 1 0.04
6 6 1 0.16
6 6 1 0.16
6 6 1 -0.88
6 6 1 -0.12
6 6 1 0.4
6 6 1 0.04
6 6 1 0.42
6 6 1 -0.16
6 6 1 0.4
6 6 1 -0.04
6 6 1 0.16
6 6 1 0.2
6 6 1 -0.08
6 6 1 0.08
6 6 1 -0.04
6 6 1 0.08
6 6 1 0.12
6 6 1 -0.4
6 6 1 -0.36
6 6 1 0.6
6 6 1 0.08
6 6 1 0.08
6 6 1 0.2
6 6 1 -0.2
6 6 1 0.28
6 6 1 -0.28
6 6 1 -0.12
6 6 1 -0.04
6 6 1 0.16
6 6 1 0.48
6 6 1 -0.28
6 6 1 0.12
6 6 1 0.04
6 6 1 0.52
6 6 1 -0.16
6 6 1 0.08
6 6 1 0.28
6 6 1 -0.24
6 6 1 -0.12
6 6 1 -0.28
6 6 1 0.12
6 6 1 -0.36
6 6 1 0.16
6 6 1 -0.4
6 6 1 0.16
6 6 1 0.16
6 6 1 0.24
6 6 1 -0.24
6 6 1 -0.32
6 6 1 0.4
6 6 1 0.44
6 6 1 -0.32
6 6 1 -0.16
6 6 1 -0.32
6 6 1 0.44
6 6 1 0.36
6 6 1 -0.16
6 6 1 0.2
6 6 1 -0.24
6 6 1 0.12
6 6 1 0.12
6 6 1 0.68
6 6 1 0.4
6 6 1 0.08
6 6 1 0.24
6 6 1 0.08
6 6 1 0.28
6 6 1 -0.04
6 6 1 -0.32
6 6 1 0.48
6 6 1 0.08
6 6 1 0.44
6 6 1 0.08
6 6 1 0.04
6 6 1 -0.6
6 6 1 0.48
6 6 1 -0.2
6 6 1 -0.28
6 6 1 -0.16
6 6 1 -0.28
6 6 1 0.32
6 6 1 0.2
6 6 1 -0.36
6 6 1 0.32
6 6 1 -0.28
6 6 1 -0.4
6 6 1 -0.24
6 6 1 0.32
6 6 1 -0.04
6 6 1 0.08
6 6 1 0.52
6 6 1 -0.16
6 6 1 0.24
6 6 1 0.12
6 6 1 0.24
6 6 1 0.08
6 6 1 0.04
6 6 1 0.6
6 6 1 0.28
6 6 1 -0.12
6 6 1 0.08
6 6 1 0.04
6 6 1 0.08
6 6 1 0.44
6 6 1 -0.32
6 6 1 0.16
6 6 1 0.24
6 6 1 0.2
6 6 1 0.12
6 6 1 -0.2
6 6 1 0.24
6 6 1 0.36
6 6 1 -0.72
6 6 1 -0.36
6 6 1 -0.08
6 6 1 -0.08
6 6 1 -0.12
6 6 1 0.36
6 6 1 0.16
6 6 1 -0.52
6 6 1 0.12
6 6 1 -0.24
6 6 1 -0.24
6 6 1 -0.36
6 6 1 0.04
6 6 1 0.08
6 6 1 -0.04
6 6 1 0.16
6 6 1 0.44
6 6 1 0.4
6 6 1 0.52
6 6 1 0.2
6 6 1 0.12
6 6 1 -0.08
6 6 1 0.48
6 6 1 0.12
6 6 1 0.44
6 6 1 0.2
6 6 1 -0.2
6 6 1 0.44
6 6 1 0.08
6 6 1 0.28
6 6 1 -0.08
6 6 1 -0.16
6 6 1 -0.2
6 6 1 -0.08
6 6 1 0.04
6 6 1 -0.8
6 6 1 -0.08
6 6 1 0.48
6 6 1 0.12
6 6 1 0.2
6 6 1 0.2
6 6 1 0.2
6 6 1 0.16
6 6 1 -0.4
6 6 1 0.44
6 6 1 -0.48
6 6 1 -0.2
6 6 1 -0.08
6 6 1 0.16
6 6 1 -0.04
6 6 1 0.08
6 6 1 0.12
6 6 1 0.24
6 6 1 0.08
6 6 1 -0.44
6 6 1 0.66
6 6 1 0.08
6 6 1 0.32
6 6 1 0.04
6 6 1 0.4
6 6 1 0.36
6 6 1 0.4
6 6 1 0.2
6 6 1 0.12
6 6 1 0.08
6 6 1 0.24
6 6 1 -0.08
6 6 1 0.52
6 6 1 0.24
6 6 1 0.36
6 6 1 0.24
6 6 1 0.08
6 6 1 0.44
6 6 1 -0.36
6 6 1 0.08
6 6 1 0.44
6 6 1 -0.12
6 6 1 -0.32
6 6 1 -0.12
6 6 1 -0.24
6 6 1 0.2
6 6 1 -0.2
6 6 1 -0.12
6 6 1 -0.2
6 6 1 -0.52
6 6 1 0.16
6 6 1 0.04
6 6 1 0.08
6 6 1 -0.08
6 6 1 0.2
6 6 1 0.04
6 6 1 -0.08
6 6 1 -0.28
6 6 1 -0.36
6 6 1 0.28
6 6 1 0.3
6 6 1 0.32
6 6 1 0.16
6 6 1 -0.08
6 6 1 0.44
6 6 1 -0.32
6 6 1 0.32
6 6 1 0.12
6 6 1 0.08
6 6 1 -0.12
6 6 1 -0.08
6 6 1 0.36
6 6 1 0.2
6 6 1 0.48
6 6 1 -0.4
6 6 1 -0.12
6 6 1 0.2
6 6 1 -0.08
6 6 1 0.24
6 6 1 0.04
6 6 1 -0.08
6 6 1 -0.08
6 6 1 0.16
6 6 1 0.24
6 6 1 -0.2
6 6 1 -0.08
6 6 1 -0.2
6 6 1 -0.08
6 6 1 0.28
6 6 1 0.12
6 6 1 -0.48
6 6 1 -0.2
6 6 1 0.2
6 6 1 0.12
6 6 1 0.12
6 6 1 -0.04
6 6 1 -0.4
6 6 1 0.48
6 6 1 0.38
6 6 1 -0.12
6 6 1 0.36
6 6 1 -0.04
6 6 1 0.12
6 6 1 -0.56
6 6 1 0.2
6 6 1 -0.16
6 6 1 0.32
6 6 1 -0.28
6 6 1 -0.32
6 6 1 0.04
6 6 1 -0.36
6 6 1 -0.2
6 6 1 0.04
6 6 1 0.32
6 6 1 0.12
6 6 1 0.12
6 6 1 -0.16
6 6 1 0.04
6 6 1 0.2
6 6 1 -0.2
6 6 1 0.16
6 6 1 0.12
6 6 1 -0.2
6 6 1 0.48
6 6 1 0.16
6 6 1 0.24
6 6 1 0.08
6 6 1 -0.24
6 6 1 -0.08
6 6 1 0.08
6 6 1 -0.04
6 6 1 -0.04
6 6 1 -0.28
6 6 1 -0.36
6 6 1 -0.16
6 6 1 0.32
6 6 1 0.32
6 6 1 -0.52
6 6 1 -0.2
6 6 1 -0.12
6 6 1 0.12
6 6 1 -0.44
6 6 1 0.36
6 6 1 -0.08
6 6 1 0.12
6 6 1 0.24
6 6 1 0.16
6 6 1 -0.12
6 6 1 0.12
6 6 1 0.08
6 6 1 -0.64
6 6 1 0.04
6 6 1 -0.32
6 6 1 0.28
6 6 1 0.12
6 6 1 0.12
6 6 1 -0.32
6 6 1 0.04
6 6 1 -0.28
6 6 1 0.44
6 6 1 0.44
6 6 1 -0.08
6 6 1 -0.04
6 6 1 0.2
6 6 1 -0.08
6 6 1 -0.08
6 6 1 -0.04
6 6 1 0.16
6 6 1 0.32
6 6 1 -0.28
6 6 1 -0.04
6 6 1 0.32
6 6 1 0.4
6 6 1 -0.08
6 6 1 -0.04
6 6 1 0.04
6 6 1 -0.08
6 6 1 -0.28
6 6 1 -0.08
6 6 1 0.24
6 6 1 -0.04
6 6 1 0.12
6 6 1 -0.24
6 6 1 0.2
6 6 1 -0.12
6 6 1 0.32
6 6 1 -0.04
6 6 1 0.04
6 6 1 0.4
6 6 1 -0.08
6 6 1 0.16
6 6 1 0.52
6 6 1 -0.04
6 6 1 0.32
6 6 1 -0.12
6 6 1 0.24
6 6 1 -0.28
6 6 1 0.24
6 6 1 -0.04
6 6 1 -0.04
6 6 1 0.2
6 6 1 0.2
6 6 1 -0.12
6 6 1 0.36
6 6 1 -0.16
6 6 1 0.36
6 6 1 0.12
6 6 1 0.48
6 6 1 0.16
6 6 1 -0.08
6 6 1 -0.04
6 6 1 0.24
6 6 1 0.16
6 6 1 -0.24
6 6 1 -0.2
6 6 1 0.12
6 6 1 -0.16
6 6 1 -0.04
6 6 1 -0.12
6 6 1 0.28
6 6 1 -0.12
6 6 1 0.32
6 6 1 0.2
6 6 1 -0.36
6 6 1 0.04
6 6 1 -0.04
6 6 1 -0.08
6 6 1 -0.2
6 6 1 -0.36
6 6 1 0.68
6 6 1 0.4
6 6 1 -0.4
6 6 1 -0.24
6 6 1 -0.08
6 6 1 0.08
6 6 1 0.12
6 6 1 -0.04
6 6 1 0.76
6 6 1 -0.04
6 6 1 0.08
6 6 1 -0.08
6 6 1 0.04
6 6 1 -0.04
6 6 1 -0.12
6 6 1 -0.52
6 6 1 0.04
6 6 1 -0.04
6 6 1 0.04
6 6 1 -0.08
6 6 1 0.16
6 6 1 0.24
6 6 1 0.36
6 6 1 -0.08
6 6 1 -0.4
6 6 1 -0.4
6 6 1 -0.28
6 6 1 -0.4
6 6 1 -0.08
6 6 1 -0.36
6 6 1 -0.2
6 6 1 0.2
6 6 1 0.16
6 6 1 0.4
6 6 1 0.24
6 6 1 -0.72
6 6 1 0.32
6 6 1 0.36
6 6 1 -0.04
6 6 1 0.44
6 6 1 0.16
6 6 1 0.26
6 6 1 -0.24
6 6 1 -0.04
6 6 1 0.08
6 6 1 0.24
6 6 1 0.04
6 6 1 0.08
6 6 1 -0.56
6 6 1 0.2
6 6 1 0.28
6 6 1 0.32
6 6 1 0.08
6 6 1 -0.16
6 6 1 -0.28
6 6 1 -0.32
6 6 1 0.24
6 6 1 0.16
6 6 1 0.24
6 6 1 -0.24
6 6 1 -0.12
6 6 1 0.24
6 6 1 -0.28
6 6 1 -0.56
6 6 1 0.16
6 6 1 0.08
6 6 1 0.28
6 6 1 0.28
6 6 1 0.28
6 6 1 0.28
6 6 1 -0.64
6 6 1 0.24
6 6 1 0.08
6 6 1 0.42
6 6 1 -0.68
6 6 1 0.44
6 6 1 -0.08
6 6 1 -0.2
6 6 1 0.12
6 6 1 0.48
6 6 1 -0.16
6 6 1 -0.24
6 6 1 0.16
6 6 1 -0.12
6 6 1 0.12
6 6 1 -0.04
6 6 1 0.8
6 6 1 0.08
6 6 1 0.12
6 6 1 -0.12
6 6 1 0.04
6 6 1 -0.08
6 6 1 -0.24
6 6 1 0.36
6 6 1 -0.24
6 6 1 0.2
6 6 1 0.08
6 6 1 0.36
6 6 1 0.16
6 6 1 0.08
6 6 1 0.2
6 6 1 -0.36
6 6 1 0.08
6 6 1 -0.28
6 6 1 0.52
6 6 1 -0.16
6 6 1 0.12
6 6 1 -0.16
6 6 1 -0.12
6 6 1 0.2
6 6 1 0.52
6 6 1 0.28
6 6 1 -0.12
6 6 1 0.04
6 6 1 -0.04
6 6 1 -0.56
6 6 1 0.08
6 6 1 -0.2
6 6 1 -0.24
6 6 1 0.24
6 6 1 0.16
6 6 1 0.12
6 6 1 0.08
6 6 1 0.4
6 6 1 -0.08
6 6 1 0.48
6 6 1 0.04
6 6 1 -0.28
6 6 1 0.72
6 6 1 -0.08
6 6 1 0.2
6 6 1 -0.32
6 6 1 0.6
6 6 1 -0.24
6 6 1 0.42
6 6 1 0.28
6 6 1 -0.48
6 6 1 0.12
6 6 1 -0.2
6 6 1 -0.44
6 6 1 -0.2
6 6 1 0.48
6 6 1 0.28
6 6 1 -0.24
6 6 1 0.28
6 6 1 -0.28
6 6 1 -0.04
6 6 1 0.2
6 6 1 0.6
6 6 1 0.04
6 6 1 0.12
6 6 1 0.16
6 6 1 -0.16
6 6 1 0.2
6 6 1 0.12
6 6 1 0.12
6 6 1 0.08
6 6 1 -0.32
6 6 1 -0.04
6 6 1 0.44
6 6 1 0.88
6 6 1 0.48
6 6 1 0.48
6 6 1 -0.12
6 6 1 0.2
6 6 1 -0.44
6 6 1 0.12
6 6 1 0.52
6 6 1 0.08
6 6 1 0.08
6 6 1 0.28
6 6 1 0.4
6 6 1 0.16
6 6 1 -0.4
6 6 1 -0.44
6 6 1 0.32
6 6 1 -0.12
6 6 1 -0.2
6 6 1 0.24
6 6 1 0.08
6 6 1 -0.4
6 6 1 0.04
6 6 1 -0.08
6 6 1 0.04
6 6 1 -0.32
6 6 1 0.04
6 6 1 -0.44
6 6 1 -0.12
6 6 1 0.48
6 6 1 -0.08
6 6 1 -0.32
6 6 1 -0.16
6 6 1 0.04
6 6 1 0.08
6 6 1 -0.04
6 6 1 -0.4
6 6 1 -0.24
6 6 1 0.6
6 6 1 0.2
6 6 1 0.04
6 6 1 0.56
6 6 1 0.32
6 6 1 0.28
6 6 1 -0.04
6 6 1 -0.28
6 6 1 -0.52
6 6 1 0.32
6 6 1 0.24
6 6 1 0.52
6 6 1 0.56
6 6 1 -0.08
6 6 1 -0.28
6 6 1 0.08
6 6 1 0.82
6 6 1 0.4
6 6 1 -0.4
6 6 1 -0.08
6 6 1 -0.36
6 6 1 0.36
6 6 1 0.12
6 6 1 0.28
6 6 1 0.04
6 6 1 0.4
6 6 1 -0.4
6 6 1 -0.2
6 6 1 -0.24
6 6 1 -0.04
6 6 1 0.44
6 6 1 -0.2
6 6 1 -0.12
6 6 1 0.16
6 6 1 -0.2
6 6 1 0.08
6 6 1 0.32
6 6 1 0.48
6 6 1 -0.44
6 6 1 -0.28
6 6 1 0.16
6 6 1 0.54
6 6 1 0.32
6 6 1 0.24
6 6 1 0.32
6 6 1 0.36
6 6 1 0.44
6 6 1 -0.32
6 6 1 0.24
6 6 1 0.28
6 6 1 0.12
6 6 1 -0.36
6 6 1 -0.6
6 6 1 0.36
6 6 1 0.28
6 6 1 0.24
6 6 1 0.24
6 6 1 -0.44
6 6 1 0.04
6 6 1 -0.04
6 6 1 -0.24
6 6 1 -0.08
6 6 1 0.08
6 6 1 0.24
6 6 1 -0.04
6 6 1 0.72
6 6 1 -0.04
6 6 1 -0.28
6 6 1 0.12
6 6 1 0.44
6 6 1 -0.16
6 6 1 0.6
6 6 1 0.32
6 6 1 0.12
6 6 1 0.36
6 6 1 -0.16
6 6 1 -0.24
6 6 1 -0.12
6 6 1 -0.2
6 6 1 -0.04
6 6 1 0.4
6 6 1 0.16
6 6 1 0.16
6 6 1 0.16
6 6 1 0.08
6 6 1 0.12
6 6 1 0.56
6 6 1 -0.44
6 6 1 -0.36
6 6 1 0.48
6 6 1 -0.28
6 6 1 0.08
6 6 1 0.24
6 6 1 0.28
6 6 1 -0.2
6 6 1 0.12
6 6 1 0.16
6 6 1 -0.04
6 6 1 0.16
6 6 1 0.2
6 6 1 -0.88
6 6 1 -0.16
6 6 1 -0.44
6 6 1 0.04
6 6 1 0.36
6 6 1 -0.16
6 6 1 0.16
6 6 1 0.2
6 6 1 0.28
6 6 1 0.68
6 6 1 -0.12
6 6 1 0.04
6 6 1 0.56
6 6 1 0.2
6 6 1 -0.16
6 6 1 0.28
6 6 1 0.04
6 6 1 -0.24
6 6 1 0.24
6 6 1 -0.24
6 6 1 0.24
6 6 1 0.6
6 6 1 0.24
6 6 1 0.32
6 6 1 0.04
6 6 1 0.12
6 6 1 -0.4
6 6 1 0.28
6 6 1 -0.6
6 6 1 0.36
6 6 1 -0.2
6 6 1 -0.24
6 6 1 0.54
6 6 1 -0.12
6 6 1 0.28
6 6 1 0.24
6 6 1 0.2
6 6 1 0.44
6 6 1 0.36
6 6 1 0.12
6 6 1 -0.4
6 6 1 0.12
6 6 1 -0.32
6 6 1 0.36
6 6 1 0.24
6 6 1 -0.12
6 6 1 0.4
6 6 1 -0.04
6 6 1 -0.04
6 6 1 0.12
6 6 1 -0.08
6 6 1 -0.28
6 6 1 -0.2
6 6 1 -0.44
6 6 1 0.56
6 6 1 -0.2
6 6 1 -0.12
6 6 1 0.2
6 6 1 -0.04
6 6 1 0.04
6 6 1 0.08
6 6 1 0.44
6 6 1 0.36
6 6 1 -0.6
6 6 1 -0.4
6 6 1 -0.04
6 6 1 -0.24
6 6 1 -0.16
6 6 1 0.2
6 6 1 0.2
6 6 1 0.24
6 6 1 -0.4
6 6 1 0.56
6 6 1 0.56
6 6 1 -0.16
6 6 1 0.3
6 6 1 0.28
6 6 1 0.12
6 6 1 -0.12
6 6 1 -0.04
6 6 1 -0.36
6 6 1 0.64
6 6 1 -0.36
6 6 1 -0.04
6 6 1 -0.44
6 6 1 0.36
6 6 1 -0.12
6 6 1 -0.12
6 6 1 0.08
6 6 1 -0.08
6 6 1 0.36
6 6 1 0.16
6 6 1 0.4
6 6 1 0.32
6 6 1 0.4
6 6 1 0.12
6 6 1 0.04
6 6 1 0.68
6 6 1 -0.04
6 6 1 -0.08
6 6 1 -0.24
6 6 1 0.12
6 6 1 0.36
6 6 1 -0.2
6 6 1 0.12
6 6 1 0.36
6 6 1 0.08
6 6 1 0.08
6 6 1 -0.4
6 6 1 0.08
6 6 1 0.36
6 6 1 0.06
6 6 1 -0.72
6 6 1 -0.4
6 6 1 0.32
6 6 1 0.2
6 6 1 0.28
6 6 1 -0.12
6 6 1 0.12
6 6 1 -0.08
6 6 1 -0.16
6 6 1 -0.4
6 6 1 0.12
6 6 1 0.04
6 6 1 0.36
6 6 1 0.24
6 6 1 -0.12
6 6 1 0.28
6 6 1 0.74
6 6 1 -0.08
6 6 1 0.12
6 6 1 -0.04
6 6 1 0.24
6 6 1 -0.2
6 6 1 0.2
6 6 1 0.32
6 6 1 0.24
6 6 1 -0.28
6 6 1 0.04
6 6 1 0.24
6 6 1 0.28
6 6 1 0.4
6 6 1 0.2
6 6 1 -0.12
6 6 1 0.48
6 6 1 -0.28
6 6 1 -0.28
6 6 1 -0.36
6 6 1 -0.2
6 6 1 -0.12
6 6 1 -0.16
6 6 1 0.28
6 6 1 0.16
6 6 1 -0.12
6 6 1 0.2
6 6 1 0.24
6 6 1 0.08
6 6 1 0.24
6 6 1 0.4
6 6 1 0.04
6 6 1 0.74
6 6 1 -0.12
6 6 1 0.24
6 6 1 0.08
6 6 1 -0.2
6 6 1 0.04
6 6 1 -0.2
6 6 1 -0.44
6 6 1 -0.08
6 6 1 -0.28
6 6 1 -0.04
6 6 1 -0.12
6 6 1 0.36
6 6 1 0.2
6 6 1 0.24
6 6 1 0.32
6 6 1 0.24
6 6 1 0.4
6 6 1 0.32
6 6 1 0.08
6 6 1 0.28
6 6 1 -0.08
6 6 1 0.32
6 6 1 -0.08
6 6 1 -0.04
6 6 1 0.04
6 6 1 0.24
6 6 1 0.44
6 6 1 -0.16
6 6 1 -0.04
6 6 1 0.28
6 6 1 -0.28
6 6 1 -0.08
6 6 1 0.44
6 6 1 0.28
6 6 1 0.04
6 6 1 -0.36
6 6 1 0.68
6 6 1 0.08
6 6 1 0.24
6 6 1 0.2
6 6 1 0.24
6 6 1 -0.12
6 6 1 0.28
6 6 1 0.52
6 6 1 0.08
6 6 1 0.04
6 6 1 -0.2
6 6 1 0.7
6 6 1 -0.12
6 6 1 -0.28
6 6 1 -0.04
6 6 1 -0.04
6 6 1 0.32
6 6 1 0.44
6 6 1 0.32
6 6 1 0.28
6 6 1 0.4
6 6 1 0.12
6 6 1 0.54
6 6 1 0.28
6 6 1 0.28
6 6 1 0.2
6 6 1 0.24
6 6 1 0.08
6 6 1 0.04
6 6 1 -0.28
6 6 1 0.44
6 6 1 0.16
6 6 1 0.6
6 6 1 0.08
6 6 1 0.16
6 6 1 0.12
6 6 1 -0.4
6 6 1 0.16
6 6 1 0.24
6 6 1 -0.08
6 6 1 0.7
6 6 1 0.28
6 6 1 0.04
6 6 1 -0.16
6 6 1 -0.4
6 6 1 0.48
6 6 1 -0.2
6 6 1 0.28
6 6 1 0.62
6 6 1 0.52
6 6 1 -0.2
6 6 1 -0.04
6 6 1 0.52
6 6 1 -0.04
6 6 1 0.42
6 6 1 0.08
6 6 1 -0.36
6 6 1 0.2
6 6 1 0.4
6 6 1 -0.2
6 6 1 0.56
6 6 1 -0.2
6 6 1 -0.4
6 6 1 0.16
6 6 1 -0.4
6 6 1 0.52
6 6 1 0.32
6 6 1 0.48
6 6 1 0.28
6 6 1 0.44
6 6 1 0.24
6 6 1 0.32
6 6 1 0.52
6 6 1 -0.32
6 6 1 0.44
299 # number of linear terms in all constraints
1 1 -0.42
1 2 0.56
1 3 -0.91
1 4 -0.36
1 5 -0.21
1 6 -0.15
1 7 -0.72
1 8 0.97
1 9 -0.62
1 10 -0.52
1 11 -0.29
1 12 -0.86
1 13 -0.32
1 14 -0.09
1 15 -0.82
1 16 0.26
1 17 -0.26
1 18 -0.51
1 19 0.6
1 20 0.09
1 21 0.54
1 22 0.81
1 23 0.32
1 24 0.6
1 25 0.44
1 26 -0.53
1 27 -0.43
1 28 0.61
1 29 0.06
1 30 -0.62
1 31 -0.86
1 32 0.17
1 33 0.4
1 34 0.84
1 35 0.54
1 36 -0.3
1 37 0.54
1 38 0.79
1 39 -0.54
1 40 -0.78
1 41 -0.23
1 42 -0.71
1 43 -0.59
1 44 -0.14
1 45 -0.01
1 46 -0.47
1 47 -0.83
1 48 0.16
1 49 0.45
1 50 0.49
2 1 0.41
2 2 -0.49
2 3 -0.39
2 4 0.03
2 5 0.96
2 6 0.08
2 7 -0.94
2 8 -0.69
2 9 0.76
2 10 -0.64
2 11 0.35
2 12 0.61
2 13 -0.83
2 14 0.68
2 15 0.19
2 16 0.23
2 17 0.32
2 18 -0.86
2 19 0.52
2 20 -0.89
2 21 -0.21
2 22 0.07
2 23 -0.37
2 24 0.22
2 25 -0.49
2 26 -0.84
2 27 0.42
2 28 -0.77
2 29 -0.31
2 30 0.59
2 31 -0.86
2 32 -0.48
2 33 0.02
2 34 1.0
2 35 -0.27
2 36 -0.12
2 37 -0.55
2 38 -0.19
2 39 0.4
2 40 0.76
2 41 0.17
2 42 -0.18
2 43 -0.3
2 44 0.52
2 45 0.56
2 46 0.01
2 47 -0.65
2 48 -0.75
2 49 -0.05
2 50 0.18
3 1 0.78
3 2 0.44
3 3 0.72
3 4 0.17
3 5 -0.26
3 6 0.74
3 7 0.47
3 8 0.22
3 9 0.91
3 10 -0.38
3 11 -0.13
3 12 0.9
3 13 -0.68
3 14 -0.32
3 15 -0.2
3 16 -0.57
3 17 -0.31
3 18 0.71
3 19 0.91
3 20 -0.08
3 21 0.61
3 22 0.74
3 23 0.68
3 24 -0.16
3 25 -0.76
3 26 0.68
3 27 -0.27
3 28 -0.3
3 29 0.32
3 30 -0.31
3 31 0.53
3 32 0.83
3 33 -0.27
3 34 0.9
3 35 0.36
3 36 -0.04
3 37 0.38
3 38 -0.21
3 39 0.16
3 40 -0.22
3 41 0.99
3 42 -0.84
3 43 0.95
3 44 -0.42
3 45 0.35
3 46 -0.16
3 47 -0.13
3 48 -0.04
3 49 0.75
3 50 0.65
4 1 0.19
4 2 -0.6
4 3 0.29
4 4 0.78
4 5 -0.29
4 6 0.68
4 7 -0.64
4 8 -0.06
4 9 -0.48
4 10 -0.93
4 11 -0.92
4 12 -0.64
4 13 -0.59
4 14 0.01
4 15 -0.81
4 16 0.79
4 17 -0.98
4 18 -0.77
4 19 -0.96
4 20 0.2
4 21 0.17
4 22 0.56
4 23 0.21
4 24 0.53
4 25 0.67
4 26 0.08
4 27 -0.59
4 28 -0.76
4 29 0.39
4 30 -0.04
4 31 -0.05
4 32 -0.34
4 33 -0.09
4 34 -0.44
4 35 -0.03
4 36 -0.12
4 37 0.26
4 38 0.33
4 39 -1.0
4 40 0.18
4 41 -0.22
4 42 -0.49
4 43 0.06
4 44 -0.43
4 45 -0.73
4 46 -0.39
4 47 0.29
4 48 -0.09
4 49 -0.8
4 50 0.87
5 1 -0.61
5 2 -0.12
5 3 0.39
5 4 -0.63
5 5 0.89
5 6 -0.05
5 7 0.95
5 8 0.7
5 9 -0.47
5 10 -0.64
5 11 0.06
5 12 -0.32
5 13 0.75
5 14 0.09
5 15 -0.68
5 16 -0.71
5 17 0.24
5 18 -0.53
5 19 -0.36
5 20 -0.47
5 21 -0.53
5 22 0.95
5 23 -0.42
5 24 0.12
5 25 -0.33
5 26 0.33
5 27 -0.33
5 28 -0.98
5 29 -0.08
5 30 -0.17
5 31 -0.6
5 32 0.96
5 33 0.43
5 34 -0.73
5 35 -0.38
5 36 -0.73
5 37 -0.6
5 38 0.38
5 39 0.2
5 40 -0.51
5 41 0.93
5 42 -0.13
5 43 0.09
5 44 0.06
5 45 0.5
5 46 0.35
5 47 -0.7
5 48 0.38
5 49 -0.13
5 50 -0.34
6 1 -0.33
6 2 -0.39
6 3 0.4
6 4 -0.96
6 5 -0.07
6 6 0.33
6 7 0.94
6 8 0.14
6 9 -0.77
6 10 -0.56
6 11 -0.11
6 12 -0.64
6 13 -0.74
6 14 -0.88
6 15 -0.9
6 16 -0.26
6 17 0.61
6 18 0.27
6 19 0.21
6 20 -0.76
6 21 0.65
6 22 0.32
6 23 -0.11
6 24 0.17
6 25 -0.07
6 26 0.59
6 27 0.29
6 28 0.53
6 29 -0.91
6 30 -0.11
6 31 0.75
6 32 0.39
6 33 0.18
6 34 0.61
6 35 0.15
6 36 -0.28
6 37 -0.57
6 38 0.79
6 40 0.34
6 41 0.92
6 42 -0.25
6 43 0.45
6 44 -0.59
6 45 0.96
6 46 0.44
6 47 -0.46
6 48 0.68
6 49 -0.14
6 50 -0.65
1.79769313486232E+308 # value for infinity
-1.79769313486232E+308 # default left-hand-side value
5 # number of non-default left-hand-sides
1 0.13
2 -0.4
3 0.1
4 -0.63
5 0.57
18.74 # default right-hand-side value
5 # number of non-default right-hand-sides
1 0.13
2 -0.4
3 0.1
4 -0.63
5 0.57
0.0 # default variable lower bound value
0 # number of non-default variable lower bounds
1.0 # default variable upper bound value
0 # number of non-default variable upper bounds
0.0 # default variable primal value in starting point
0 # number of non-default variable primal values in starting point
0.0 # default constraint dual value in starting point
0 # number of non-default constraint dual values in starting point
0.0 # default variable bound dual value in starting point
0 # number of non-default variable bound dual values in starting point
0 # number of non-default variable names
0 # number of non-default constraint names
